NAME : expansion
TYPE : TSP
DIMENSION : 50
EDGE_WEIGHT_TYPE : EUC_2D
NODE_COORD_SECTION
1 970888 263502
2 532491 627474
3 532888 9000
4 517273 618959
5 86275 36185
6 524260 626018
7 638713 725479
8 971817 253517
9 465725 704867
10 549704 781381
11 985517 262200
12 76530 992631
13 600609 672240
14 688039 780601
15 190355 881553
16 970302 979086
17 787227 943608
18 168441 778146
19 45543 553945
20 371274 844935
21 544486 607806
22 467146 785770
23 852690 177082
24 864617 976048
25 707031 683995
26 237529 694800
27 888535 111560
28 971141 218403
29 751133 770806
30 473267 687909
31 13188 805415
32 828702 847641
33 888999 995838
34 523800 656396
35 260761 537622
36 628141 84229
37 925408 997149
38 162307 644681
39 967319 234810
40 491649 52288
41 625413 85509
42 793567 141923
43 937624 823466
44 84567 723831
45 546921 762547
46 641111 713292
47 724354 686778
48 421070 648113
49 571821 615599
50 966734 232882
EOF
